NAME : block_27.401276.tour
COMMENT : Length = 401276
COMMENT : Found by LKH-3 [Keld Helsgaun] Wed Apr 22 15:46:52 2026
TYPE : TOUR
DIMENSION : 116
TOUR_SECTION
79
69
59
48
37
26
16
8
3
9
17
27
38
49
60
70
80
90
100
109
110
101
91
81
71
61
50
39
28
18
10
4
5
11
19
29
40
51
62
72
82
92
102
111
112
103
93
83
73
63
52
41
30
20
12
6
7
13
21
31
42
53
64
74
84
94
104
113
114
105
95
85
75
65
54
43
44
33
32
22
14
15
23
24
34
45
56
67
55
66
76
86
96
106
115
107
97
87
77
2
116
1
57
46
35
25
36
47
58
68
78
88
98
108
99
89
-1
EOF
